# Solution for model F-JSSP-SDST
# Objective value = 4087
B0(14) 0
B1(14) 1
B2(18) 0
B3(15) 0
B4(14) 0
B5(14) 1
B6(14) 1
B7(13) 0
B8(7) 0
B9(15) 0
B10(15) 1
B11(15) 1
B12(14) 0
B13(16) 0
B14(13) 0
B15(9) 1
B16(7) 0
B17(14) 0
B18(14) 1
B19(9) 1
B20(17) 0
B21(15) 0
B22(14) 0
B23(13) 1
B24(9) 0
B25(14) 0
B26(14) 1
B27(16) 0
B28(14) 1
B29(15) 1
B30(9) 0
B31(15) 0
B32(15) 0
B33(15) 1
B34(16) 0
B35(17) 1
B36(13) 0
B37(12) 0
B38(9) 1
B39(2) 0
B40(2) 1
B41(2) 0
B42(2) 0
B43(2) 0
B44(2) 1
B45(2) 0
B46(2) 1
B47(2) 1
B48(2) 0
B49(2) 0
B50(2) 1
B51(2) 0
B52(2) 0
B53(2) 0
B54(2) 0
B55(2) 0
B56(2) 1
B57(2) 0
B58(2) 0
B59(2) 0
B60(2) 1
B61(2) 0
B62(2) 0
B63(2) 1
B64(2) 0
B65(2) 0
B66(2) 1
B67(2) 0
B68(2) 0
B69(2) 1
B70(2) 0
B71(2) 0
B72(2) 0
B73(2) 0
B74(2) 1
B75(2) 1
B76(2) 0
B77(2) 0
B78(2) 0
B79(2) 0
B80(2) 1
B81(2) 0
B82(2) 1
B83(2) 0
B84(2) 0
B85(2) 1
B86(2) 0
B87(2) 0
B88(2) 0
B89(2) 1
B90(2) 0
B91(2) 0
B92(2) 1
B93(2) 0
B94(2) 0
B95(2) 1
B96(2) 0
B97(2) 0
B98(2) 1
B99(2) 0
B100(2) 0
B101(2) 0
B102(2) 0
B103(2) 1
B104(2) 1
B105(2) 1
B106(2) 1
B107(2) 0
B108(2) 0
B109(2) 0
B110(2) 0
B111(2) 0
B112(2) 1
B113(2) 1
B114(2) 0
B115(2) 0
B116(2) 0
B117(2) 1
B118(2) 0
B119(2) 1
B120(2) 0
B121(2) 1
B122(2) 0
B123(2) 0
B124(2) 0
B125(2) 0
B126(2) 1
B127(2) 0
C128(14) 0
C129(14) 148
C130(18) 0
C131(18) 0
C132(16) 0
C133(16) 271
C134(15) 398
C135(15) 0
C136(9) 0
C137(15) 0
C138(15) 0
C139(16) 163
C140(16) 0
C141(18) 0
C142(14) 0
C143(10) 290
C144(8) 0
C145(14) 0
C146(14) 76
C147(10) 138
C148(18) 0
C149(16) 0
C150(15) 0
C151(15) 283
C152(11) 0
C153(14) 0
C154(14) 0
C155(17) 0
C156(15) 65
C157(16) 238
C158(10) 0
C159(15) 0
C160(15) 0
C161(15) 0
C162(17) 0
C163(19) 128
C164(15) 0
C165(13) 0
C166(11) 193
C167(1) 4087
